
Gurobi 11.0.2 (win64) logging started Tue Dec  3 02:03:45 2024

Set parameter LogFile to value "gurobi_log.txt"

Gurobi 11.0.2 (win64) logging started Tue Dec  3 02:09:55 2024

Set parameter LogFile to value "gurobi_log.txt"

Gurobi 11.0.2 (win64) logging started Tue Dec  3 02:12:44 2024

Set parameter LogFile to value "gurobi_log.txt"

Gurobi 11.0.2 (win64) logging started Tue Dec  3 02:22:13 2024

Set parameter LogFile to value "gurobi_log.txt"

Gurobi 11.0.2 (win64) logging started Tue Dec  3 02:25:54 2024

Set parameter LogFile to value "gurobi_log.txt"

Gurobi 11.0.2 (win64) logging started Tue Dec  3 02:27:38 2024

Set parameter LogFile to value "gurobi_log.txt"

Gurobi 11.0.2 (win64) logging started Tue Dec  3 02:32:06 2024

Set parameter LogFile to value "gurobi_log.txt"

Gurobi 11.0.2 (win64) logging started Tue Dec  3 02:35:11 2024

Set parameter LogFile to value "gurobi_log.txt"

Gurobi 11.0.2 (win64) logging started Tue Dec  3 02:37:50 2024

Set parameter LogFile to value "gurobi_log.txt"

Gurobi 11.0.2 (win64) logging started Tue Dec  3 02:42:18 2024

Set parameter LogFile to value "gurobi_log.txt"

Gurobi 11.0.2 (win64) logging started Tue Dec  3 02:50:11 2024

Set parameter LogFile to value "gurobi_log.txt"

Gurobi 11.0.2 (win64) logging started Tue Dec  3 03:02:32 2024

Set parameter LogFile to value "gurobi_log.txt"

Gurobi 11.0.2 (win64) logging started Tue Dec  3 03:03:39 2024

Set parameter LogFile to value "gurobi_log.txt"

Gurobi 11.0.2 (win64) logging started Tue Dec  3 03:04:49 2024

Set parameter LogFile to value "gurobi_log.txt"

Gurobi 11.0.2 (win64) logging started Tue Dec  3 03:05:43 2024

Set parameter LogFile to value "gurobi_log.txt"

Gurobi 11.0.2 (win64) logging started Tue Dec  3 03:09:54 2024

Set parameter LogFile to value "gurobi_log.txt"

Gurobi 11.0.2 (win64) logging started Tue Dec  3 03:11:44 2024

Set parameter LogFile to value "gurobi_log.txt"

Gurobi 11.0.2 (win64) logging started Tue Dec  3 03:13:08 2024

Set parameter LogFile to value "gurobi_log.txt"

Gurobi 11.0.2 (win64) logging started Tue Dec  3 03:14:34 2024

Set parameter LogFile to value "gurobi_log.txt"

Gurobi 11.0.2 (win64) logging started Tue Dec  3 14:34:41 2024

Set parameter LogFile to value "gurobi_log.txt"

Gurobi 11.0.2 (win64) logging started Tue Dec  3 14:36:29 2024

Set parameter LogFile to value "gurobi_log.txt"

Gurobi 11.0.2 (win64) logging started Tue Dec  3 14:37:21 2024

Set parameter LogFile to value "gurobi_log.txt"

Gurobi 11.0.2 (win64) logging started Tue Dec  3 14:49:39 2024

Set parameter LogFile to value "gurobi_log.txt"

Gurobi 11.0.2 (win64) logging started Tue Dec  3 14:51:12 2024

Set parameter LogFile to value "gurobi_log.txt"

Gurobi 11.0.2 (win64) logging started Tue Dec  3 14:51:52 2024

Set parameter LogFile to value "gurobi_log.txt"

Gurobi 11.0.2 (win64) logging started Tue Dec  3 14:52:21 2024

Set parameter LogFile to value "gurobi_log.txt"

Gurobi 11.0.2 (win64) logging started Tue Dec  3 14:53:15 2024

Set parameter LogFile to value "gurobi_log.txt"

Gurobi 11.0.2 (win64) logging started Tue Dec  3 14:54:39 2024

Set parameter LogFile to value "gurobi_log.txt"

Gurobi 11.0.2 (win64) logging started Tue Dec  3 14:55:27 2024

Set parameter LogFile to value "gurobi_log.txt"

Gurobi 11.0.2 (win64) logging started Tue Dec  3 16:29:58 2024

Set parameter LogFile to value "gurobi_log.txt"

Gurobi 11.0.2 (win64) logging started Tue Dec  3 16:30:17 2024

Set parameter LogFile to value "gurobi_log.txt"

Gurobi 11.0.2 (win64) logging started Tue Dec  3 16:31:02 2024

Set parameter LogFile to value "gurobi_log.txt"

Gurobi 11.0.2 (win64) logging started Tue Dec  3 16:33:28 2024

Set parameter LogFile to value "gurobi_log.txt"

Gurobi 11.0.2 (win64) logging started Tue Dec  3 16:36:37 2024

Set parameter LogFile to value "gurobi_log.txt"

Gurobi 11.0.2 (win64) logging started Mon Dec  9 16:40:00 2024

Set parameter LogFile to value "gurobi_log.txt"

Gurobi 11.0.2 (win64) logging started Mon Dec  9 16:53:09 2024

Set parameter LogFile to value "gurobi_log.txt"
